#######################################
### Exact MIP solver for the HHCRSP ###
#######################################
-- Instance file: new-instances/HHCRSP_100_20_1_0.8_C_RC.txt
-- Max threads: 4
-- Time limit: 999999 seconds
-- Use initial solution: No
Trivial flow violations prevented generating 45613 variables.
Model exported.
Version identifier: 20.1.0.0 | 2020-11-10 | 9bedb6d68
CPXPARAM_Threads                                 4
CPXPARAM_TimeLimit                               999999
Parallel mode: deterministic, using up to 4 threads for concurrent optimization:
 * Starting dual Simplex on 1 thread...
 * Starting Barrier on 3 threads...
Tried aggregator 1 time.
LP Presolve eliminated 5808 rows and 1440 columns.
Reduced LP has 58732 rows, 56277 columns, and 675612 nonzeros.
Presolve time = 0.45 sec. (174.47 ticks)
Symmetry aggregator did 75048 additional substitutions.

Iteration log . . .
Iteration:     1   Dual objective     =             0.000000
Iteration:   467   Dual objective     =           218.222222

Dual crossover.
  Dual:  Fixing 328 variables.
      327 DMoves:  Infeasibility  1.06192855e-13  Objective  2.20005813e+02
        0 DMoves:  Infeasibility  1.11688459e-13  Objective  2.20005813e+02
  Dual:  Pushed 10, exchanged 318.
  Primal:  Fixing 132 variables.
      131 PMoves:  Infeasibility  0.00000000e+00  Objective  2.20005813e+02
        0 PMoves:  Infeasibility  0.00000000e+00  Objective  2.20005813e+02
  Primal:  Pushed 82, exchanged 50.

Dual simplex solved model.


Solution status from MIP model:
-- Processing time: 0.75 sec.
-- Memory used: 124.577 MB
-- Best bound: inf
-- Obj value: 220.006
-- Gap: inf%
-- Total distance: 660.017
-- Total tardiness: 0
-- Largest tardiness: 0
